1430
1   1   174  54   0 4 12 20 28 36 33 25 17 9 2 0
1   2   170  54   0 3 11 19 27 35 37 29 21 13 5 0
1   3   0    0    0 0
1   4   200  49   0 15 23 31 39 59 67 75 40 32 24 16 8 0
1   5   156  59   0 10 18 34 26 1 14 6 7 0
2   1   140  27   0 46 54 70 78 62 0
2   2   120  59   0 42 43 51 77 69 61 53 45 0
2   3   100  27   0 76 68 60 52 44 0
2   4   170  54   0 48 56 64 72 80 79 71 63 55 47 0
2   5   200  49   0 41 49 57 65 73 38 30 22 74 66 58 50 0